11 20
3 1 1 1 1
2 2 3 3 3
3 3 3 4 4
4 5 6 8 9
5
6 13 17 18 20
7
1 9 15 16 17 18 20
4
2 8 10 19
3
3 14 20
5
4 9 11 17 19
5
5 11 14 16 20
5
7 15 17 19 20
3
12 13 19
5
8 14 17 18 20
4
10 13 16 19
5
6 12 18 19 20
